
******************************************************************************
This program contains Ipopt, a library for large-scale nonlinear optimization.
 Ipopt is released as open source code under the Eclipse Public License (EPL).
         For more information visit http://projects.coin-or.org/Ipopt

This version of Ipopt was compiled from source code available at
    https://github.com/IDAES/Ipopt as part of the Institute for the Design of
    Advanced Energy Systems Process Systems Engineering Framework (IDAES PSE
    Framework) Copyright (c) 2018-2019. See https://github.com/IDAES/idaes-pse.

This version of Ipopt was compiled using HSL, a collection of Fortran codes
    for large-scale scientific computation.  All technical papers, sales and
    publicity material resulting from use of the HSL codes within IPOPT must
    contain the following acknowledgement:
        HSL, a collection of Fortran codes for large-scale scientific
        computation. See http://www.hsl.rl.ac.uk.
******************************************************************************

This is Ipopt version 3.13.2, running with linear solver ma27.

Number of nonzeros in equality constraint Jacobian...:      958
Number of nonzeros in inequality constraint Jacobian.:        0
Number of nonzeros in Lagrangian Hessian.............:      832

Total number of variables............................:      416
                     variables with only lower bounds:      128
                variables with lower and upper bounds:      224
                     variables with only upper bounds:        0
Total number of equality constraints.................:      415
Total number of inequality constraints...............:        0
        inequality constraints with only lower bounds:        0
   inequality constraints with lower and upper bounds:        0
        inequality constraints with only upper bounds:        0

iter    objective    inf_pr   inf_du lg(mu)  ||d||  lg(rg) alpha_du alpha_pr  ls
   0  0.0000000e+00 1.07e+00 5.94e-14  -1.0 0.00e+00    -  0.00e+00 0.00e+00   0
   1  1.0355517e+01 1.03e+00 5.04e+05  -1.0 1.30e+07    -  2.23e-02 1.52e-02h  3
   2  2.6141900e+01 1.02e+00 6.26e+05  -1.0 1.87e+07    -  2.04e-02 7.65e-03h  4
   3  2.9346995e+01 1.02e+00 6.28e+05  -1.0 2.41e+07    -  1.95e-02 1.06e-03h  7
   4  3.1034672e+01 1.02e+00 6.28e+05  -1.0 2.60e+07    -  1.88e-02 5.10e-04h  8
   5  3.2613517e+01 1.02e+00 6.28e+05  -1.0 2.87e+07    -  1.98e-02 4.41e-04h  8
   6  7.1039537e+02 9.66e-01 8.01e+06  -1.0 3.14e+07    -  1.85e-02 4.96e-02h  1
   7  7.2721410e+02 9.65e-01 8.01e+06  -1.0 4.29e+07    -  2.83e-02 4.49e-04h  1
   8r 7.2721410e+02 9.65e-01 9.99e+02  -0.0 0.00e+00    -  0.00e+00 2.89e-07R  5
   9r 7.2721586e+02 1.09e+00 9.90e+02  -0.0 6.09e+02    -  2.92e-03 8.66e-03f  1
iter    objective    inf_pr   inf_du lg(mu)  ||d||  lg(rg) alpha_du alpha_pr  ls
  10r 7.2721750e+02 1.08e+00 9.82e+02  -0.0 6.26e+02    -  1.37e-02 8.39e-03f  1
  11r 7.2721886e+02 1.44e+00 9.74e+02  -0.0 7.07e+02    -  3.42e-02 7.85e-03f  1
  12r 7.2721891e+02 1.42e+00 9.66e+02  -0.0 2.07e+03    -  2.09e-02 8.76e-03f  1
  13r 7.2722286e+02 1.54e+00 9.50e+02  -0.0 7.25e+02    -  1.71e-03 1.94e-02f  1
  14r 7.2722299e+02 1.54e+00 1.02e+03  -0.0 1.68e+03    -  2.83e-02 1.89e-03f  1
  15r 7.2722903e+02 1.50e+00 9.31e+02  -0.0 5.82e+02    -  1.67e-03 2.36e-02f  1
  16r 7.2722903e+02 1.46e+00 9.01e+02  -0.0 2.53e+01   0.0 1.28e-01 2.41e-02f  1
  17r 7.2723004e+02 1.45e+00 8.94e+02  -0.0 1.24e+03    -  1.61e-03 1.02e-02f  1
  18r 7.2723076e+02 1.44e+00 8.86e+02  -0.0 1.01e+03    -  9.87e-03 7.38e-03f  1
  19r 7.2723157e+02 1.42e+00 8.79e+02  -0.0 1.01e+03    -  7.78e-03 9.64e-03f  1
iter    objective    inf_pr   inf_du lg(mu)  ||d||  lg(rg) alpha_du alpha_pr  ls
  20r 7.2723218e+02 1.41e+00 8.73e+02  -0.0 1.07e+03    -  6.29e-03 1.01e-02f  1
  21r 7.2723264e+02 1.40e+00 8.60e+02  -0.0 8.36e+02    -  6.01e-02 9.02e-03f  1
  22r 7.2724201e+02 1.32e+00 8.16e+02  -0.0 1.40e+03    -  3.02e-02 5.21e-02f  1
  23r 7.2724476e+02 1.28e+00 7.90e+02  -0.0 4.70e+02    -  1.21e-01 3.01e-02f  1
  24r 7.2724692e+02 1.22e+00 7.78e+02  -0.0 2.55e+02    -  2.46e-01 5.25e-02f  1
  25r 7.2724839e+02 1.16e+00 7.15e+02  -0.0 3.95e+02    -  6.73e-03 4.99e-02f  1
  26r 7.2725075e+02 1.11e+00 6.92e+02  -0.0 2.78e+02    -  1.68e-02 3.92e-02f  1
  27r 7.2726067e+02 9.69e-01 5.82e+02  -0.0 2.37e+02    -  1.29e-01 1.77e-01f  1
  28r 7.2726067e+02 9.68e-01 5.68e+02  -0.0 3.37e+00   1.3 3.64e-02 1.49e-02f  1
  29r 7.2726067e+02 9.66e-01 5.23e+02  -0.0 9.00e-01   0.9 9.33e-02 6.58e-02f  1
iter    objective    inf_pr   inf_du lg(mu)  ||d||  lg(rg) alpha_du alpha_pr  ls
  30r 7.2726067e+02 9.61e-01 5.21e+02  -0.0 1.24e+00   0.4 1.26e-01 6.70e-02f  1
  31r 7.2726067e+02 9.54e-01 2.12e+03  -0.0 2.31e+00  -0.1 1.26e-01 3.00e-01f  1
  32r 7.2726067e+02 9.47e-01 2.11e+03  -0.0 6.01e+00   1.2 5.27e-03 6.64e-03f  1
  33r 7.2726067e+02 9.33e-01 2.10e+03  -0.0 1.54e+02   0.7 4.34e-03 3.06e-03f  1
  34r 7.2726067e+02 9.27e-01 2.06e+03  -0.0 5.44e-01   2.1 9.08e-02 2.65e-02f  1
  35r 7.2726067e+02 8.92e-01 1.48e+03  -0.0 5.29e-01   2.5 9.90e-01 3.05e-01f  1
  36r 7.2726067e+02 8.74e-01 2.13e+03  -0.0 3.68e-01   2.0 1.61e-01 4.11e-01f  1
  37r 7.2726067e+02 8.63e-01 1.91e+03  -0.0 5.52e-01   1.6 8.07e-02 9.81e-02f  1
  38  7.2801192e+02 8.63e-01 1.87e+05  -1.0 3.67e+07    -  3.30e-02 3.55e-05h  1
  39  7.0279664e+02 1.03e+01 2.39e+06  -1.0 1.81e+08    -  2.27e-02 1.60e-03f  2
iter    objective    inf_pr   inf_du lg(mu)  ||d||  lg(rg) alpha_du alpha_pr  ls
  40  7.0041830e+02 1.03e+01 2.62e+06  -1.0 1.71e+08    -  2.28e-02 2.07e-04f  6
  41  6.9979482e+02 1.03e+01 1.38e+08  -1.0 2.71e+08    -  4.03e-03 7.89e-05f  1
  42  6.9865449e+02 1.03e+01 1.44e+08  -1.0 1.71e+08    -  2.41e-02 1.02e-04f  7
  43  6.9770078e+02 1.03e+01 1.06e+10  -1.0 1.35e+08    -  8.10e-03 1.11e-04f  1
  44  6.9736418e+02 1.03e+01 1.13e+10  -1.0 1.72e+08    -  2.17e-02 2.84e-05f  8
  45  6.9682492e+02 1.03e+01 1.67e+10  -1.0 1.75e+08    -  2.78e-02 4.95e-05f  8
  46  6.8983772e+02 1.03e+01 1.66e+10  -1.0 1.20e+08    -  3.22e-02 8.48e-04f  4
  47  6.8695864e+02 1.03e+01 2.63e+10  -1.0 1.22e+08    -  3.48e-02 3.86e-04f  5
  48  6.8639331e+02 1.03e+01 1.24e+12  -1.0 2.23e+08    -  5.08e-03 1.08e-04f  1
  49  6.8557010e+02 1.03e+01 1.27e+12  -1.0 1.75e+08    -  2.90e-02 9.06e-05f  7
iter    objective    inf_pr   inf_du lg(mu)  ||d||  lg(rg) alpha_du alpha_pr  ls
  50  6.8538609e+02 1.03e+01 8.72e+12  -1.0 1.90e+08    -  3.48e-02 2.02e-05f  9
  51  6.8472331e+02 1.03e+01 2.47e+13  -1.0 1.23e+08    -  2.85e-02 1.02e-04f  7
  52  6.8467964e+02 1.03e+01 5.57e+13  -1.0 3.06e+08    -  1.48e-03 9.09e-06f  8
  53r 6.8467964e+02 1.03e+01 1.00e+03   1.0 0.00e+00    -  0.00e+00 3.89e-07R  8
  54r 6.8467953e+02 8.57e-01 9.93e+02   1.0 5.05e+03    -  1.09e-02 2.02e-03f  1
  55r 6.8467953e+02 8.57e-01 9.99e+02  -0.1 0.00e+00    -  0.00e+00 1.40e-08R  2
  56r 6.8467964e+02 8.56e-01 9.98e+02  -0.1 8.09e+02    -  7.46e-02 1.46e-03f  1
  57r 6.8468616e+02 2.26e+00 9.23e+02  -0.1 6.12e+02    -  1.74e-02 7.52e-02f  1
  58r 6.8468616e+02 2.23e+00 9.13e+02  -0.1 5.97e+02  -2.0 1.21e-02 1.13e-02f  1
  59r 6.8468616e+02 2.22e+00 9.07e+02  -0.1 2.39e+03  -2.5 1.26e-02 6.63e-03f  1
iter    objective    inf_pr   inf_du lg(mu)  ||d||  lg(rg) alpha_du alpha_pr  ls
  60r 6.8468735e+02 2.19e+00 8.96e+02  -0.1 4.00e+02    -  6.98e-02 1.17e-02f  1
  61r 6.8469019e+02 2.14e+00 8.73e+02  -0.1 8.11e+02    -  7.02e-02 2.56e-02f  1
  62r 6.8469201e+02 2.09e+00 8.56e+02  -0.1 8.54e+02    -  1.04e-03 2.11e-02f  1
  63r 6.8469598e+02 2.02e+00 8.25e+02  -0.1 4.89e+02    -  5.26e-02 3.46e-02f  1
  64r 6.8469598e+02 1.99e+00 8.17e+02  -0.1 1.02e+03  -1.1 7.04e-04 1.12e-02f  1
  65r 6.8469598e+02 1.95e+00 7.98e+02  -0.1 3.57e+01  -1.6 2.32e-01 2.09e-02f  1
  66r 6.8469598e+02 1.45e+00 7.58e+02  -0.1 1.40e+02  -2.1 6.30e-02 2.58e-01f  1
  67r 6.8469598e+02 1.43e+00 5.84e+02  -0.1 5.14e+01  -1.7 1.14e-01 1.37e-02f  1
  68r 6.8469598e+02 1.24e+00 8.61e+02  -0.1 1.43e+00   2.4 4.27e-01 1.35e-01f  1
  69r 6.8469598e+02 6.48e-01 4.39e+02  -0.1 1.23e+00   2.8 4.62e-01 5.00e-01f  1
iter    objective    inf_pr   inf_du lg(mu)  ||d||  lg(rg) alpha_du alpha_pr  ls
  70  6.9238628e+02 6.48e-01 1.49e+04  -1.0 1.16e+08    -  8.10e-03 2.27e-04h  6
  71  6.9465666e+02 6.48e-01 1.50e+04  -1.0 1.33e+08    -  4.76e-03 4.28e-05h  8
  72  7.1498192e+02 6.48e-01 1.98e+04  -1.0 1.94e+08    -  3.00e-03 2.47e-04h  5
  73  7.5489145e+02 6.48e-01 5.17e+04  -1.0 2.05e+08    -  3.07e-03 4.67e-04h  4
  74  7.6392844e+02 6.48e-01 5.30e+04  -1.0 2.17e+08    -  3.50e-03 1.02e-04h  6
  75  7.7279155e+02 6.48e-01 5.39e+04  -1.0 2.19e+08    -  5.50e-03 9.87e-05h  6
  76  7.8147785e+02 6.48e-01 5.43e+04  -1.0 2.21e+08    -  5.55e-03 9.56e-05h  6
  77  7.8998490e+02 6.48e-01 5.45e+04  -1.0 2.22e+08    -  5.60e-03 9.27e-05h  6
  78  7.9831094e+02 6.48e-01 5.46e+04  -1.0 2.22e+08    -  5.80e-03 8.99e-05h  6
  79  8.0645478e+02 6.48e-01 5.47e+04  -1.0 2.22e+08    -  1.03e-02 8.71e-05h  6
iter    objective    inf_pr   inf_du lg(mu)  ||d||  lg(rg) alpha_du alpha_pr  ls
  80  1.1000710e+03 6.46e-01 3.58e+05  -1.0 2.22e+08    -  1.04e-02 2.70e-03w  1
  81  1.1028885e+03 6.46e-01 1.67e+06  -1.0 1.28e+08    -  1.04e-02 2.75e-05w  1
  82  1.1029211e+03 6.46e-01 2.37e+08  -1.0 1.69e+08    -  2.91e-03 1.60e-06w  1
  83  8.2245520e+02 6.47e-01 5.48e+04  -1.0 1.29e+09    -  1.04e-02 1.69e-04h  4
  84  8.3769775e+02 6.47e-01 1.39e+05  -1.0 2.20e+08    -  1.08e-02 1.59e-04h  5
  85  8.5219106e+02 6.47e-01 7.29e+05  -1.0 2.17e+08    -  1.08e-02 1.49e-04h  5
  86  8.6594867e+02 6.47e-01 4.15e+06  -1.0 2.14e+08    -  1.14e-02 1.40e-04h  5
  87  8.7899612e+02 6.47e-01 2.09e+07  -1.0 2.11e+08    -  9.23e-03 1.32e-04h  5
  88  8.9134780e+02 6.47e-01 1.51e+08  -1.0 2.08e+08    -  1.34e-02 1.24e-04h  5
  89  8.9713626e+02 6.47e-01 1.88e+08  -1.0 1.90e+08    -  9.11e-03 6.37e-05h  6
iter    objective    inf_pr   inf_du lg(mu)  ||d||  lg(rg) alpha_du alpha_pr  ls
  90  9.2001786e+02 6.47e-01 1.89e+08  -1.0 2.04e+08    -  1.38e-02 2.25e-04h  4
  91  9.4032055e+02 6.47e-01 4.18e+08  -1.0 1.96e+08    -  9.19e-03 2.01e-04h  4
  92  9.5832783e+02 6.47e-01 4.24e+08  -1.0 1.93e+08    -  1.62e-02 1.73e-04h  4
  93  1.0919931e+03 6.46e-01 6.70e+09  -1.0 1.89e+08    -  9.80e-03 1.21e-03w  1
  94  1.0933194e+03 6.46e-01 4.95e+12  -1.0 1.31e+08    -  3.31e-02 1.62e-05w  1
  95  1.0976323e+03 6.45e-01 4.85e+12  -1.0 1.97e+08    -  1.48e-02 1.03e-03w  1
  96  9.9040945e+02 6.46e-01 7.22e+08  -1.0 3.42e+08    -  9.80e-03 3.03e-04h  2
  97  1.0148661e+03 6.46e-01 1.09e+09  -1.0 1.82e+08    -  1.98e-02 2.28e-04h  3
  98  1.0522939e+03 6.46e-01 2.58e+09  -1.0 1.77e+08    -  1.10e-02 3.44e-04h  2
  99  1.0907255e+03 6.46e-01 1.27e+11  -1.0 1.69e+08    -  2.59e-02 3.48e-04h  1
iter    objective    inf_pr   inf_du lg(mu)  ||d||  lg(rg) alpha_du alpha_pr  ls
 100r 1.0907255e+03 6.46e-01 1.00e+03  -0.2 0.00e+00    -  0.00e+00 4.36e-07R  4
 101r 1.0907257e+03 6.46e-01 9.98e+02  -0.2 1.42e+03    -  7.60e-02 1.04e-03f  1
 102r 1.0907361e+03 6.44e-01 9.56e+02  -0.2 1.15e+03    -  6.52e-02 4.27e-02f  1
 103r 1.0907361e+03 6.39e-01 9.03e+02  -0.2 3.13e-01   2.0 1.04e-01 5.55e-02f  1
 104r 1.0907361e+03 6.23e-01 8.17e+02  -0.2 1.35e+00   1.5 3.85e-02 9.75e-02f  1
 105r 1.0907361e+03 6.12e-01 6.28e+02  -0.2 1.35e-01   2.9 7.11e-01 2.60e-01f  1
 106r 1.0907361e+03 6.10e-01 6.53e+02  -0.2 1.01e+01   2.4 1.23e-02 1.40e-02f  1
 107r 1.0907361e+03 6.10e-01 5.99e+02  -0.2 7.67e-02   2.8 9.90e-01 8.68e-02f  1
 108r 1.0907361e+03 6.03e-01 2.83e+02  -0.2 5.00e-01   2.3 1.57e-01 6.06e-01f  1
 109r 1.0907361e+03 6.02e-01 4.54e+02  -0.2 6.51e-01   2.7 9.90e-01 6.61e-02f  1
iter    objective    inf_pr   inf_du lg(mu)  ||d||  lg(rg) alpha_du alpha_pr  ls
 110r 1.0907361e+03 6.00e-01 2.37e+02  -0.2 1.54e-01   3.2 9.90e-01 8.77e-01f  1
 111r 1.0907361e+03 6.28e-01 4.01e+02  -0.2 7.09e-01   2.7 9.75e-01 1.71e-01f  1
 112r 1.0907361e+03 6.21e-01 8.78e+02  -0.2 2.10e-01   2.2 1.57e-01 8.00e-01f  1
 113r 1.0907361e+03 6.22e-01 3.12e+02  -0.2 7.13e-01   2.6 5.82e-01 1.79e-01f  1
 114r 1.0907361e+03 6.20e-01 1.70e+02  -0.2 1.43e-01   3.1 1.00e+00 1.00e+00f  1
 115r 1.0907361e+03 6.20e-01 2.11e+02  -0.2 1.79e+00   2.6 2.59e-01 8.80e-02f  1
 116r 1.0907361e+03 6.19e-01 3.20e+01  -0.2 3.04e-02   3.0 1.00e+00 1.00e+00f  1
 117r 1.0907361e+03 1.83e+00 1.81e+03  -0.9 1.62e+00   2.5 3.34e-02 3.44e-01f  1
 118r 1.0907361e+03 1.82e+00 1.77e+03  -0.9 3.11e+00   3.0 2.27e-02 5.07e-03h  1
 119r 1.0907361e+03 1.83e+00 1.77e+03  -0.9 7.21e+00   2.5 1.47e-03 2.31e-04H  1
iter    objective    inf_pr   inf_du lg(mu)  ||d||  lg(rg) alpha_du alpha_pr  ls
 120r 1.0907361e+03 1.83e+00 1.77e+03  -0.9 5.77e+00   2.9 1.65e-03 1.56e-04H  1
 121r 1.0907361e+03 1.83e+00 1.77e+03  -0.9 7.41e+00   2.4 1.07e-03 1.08e-04H  1
 122r 1.0907361e+03 1.83e+00 1.77e+03  -0.9 5.12e+00   2.0 1.27e-02 1.75e-04h  1
 123r 1.0907361e+03 1.82e+00 1.72e+03  -0.9 7.81e+00   1.5 7.75e-05 6.52e-03h  2
 124r 1.0907361e+03 1.82e+00 1.72e+03  -0.9 1.12e+02   1.9 1.32e-04 5.14e-06H  1
 125r 1.0907361e+03 1.82e+00 1.72e+03  -0.9 6.26e+01   1.4 1.95e-06 5.84e-05h  1
 126r 1.0907361e+03 1.82e+00 1.72e+03  -0.9 4.88e+00   2.8 1.46e-03 3.46e-05H  1
 127r 1.0907361e+03 1.82e+00 1.72e+03  -0.9 1.19e+01   2.3 2.49e-04 7.54e-06H  1
 128r 1.0907361e+03 1.82e+00 1.72e+03  -0.9 4.98e+00   1.8 6.77e-03 1.12e-04H  1
 129r 1.0907361e+03 1.82e+00 1.72e+03  -0.9 5.21e+00   1.3 4.10e-02 1.71e-03h  1
iter    objective    inf_pr   inf_du lg(mu)  ||d||  lg(rg) alpha_du alpha_pr  ls
 130r 1.0907361e+03 1.82e+00 1.72e+03  -0.9 4.87e+00   0.9 1.24e-03 7.10e-05H  1
 131r 1.0907361e+03 6.19e-01 1.35e+03  -0.9 1.07e+01   0.4 6.76e-03 1.09e-02F  1
 132r 1.0907361e+03 6.19e-01 1.21e+03  -0.9 6.65e+01  -0.1 3.13e-02 1.08e-01f  1
 133r 1.0907236e+03 6.19e-01 1.20e+03  -0.9 8.51e+03    -  9.00e-03 7.76e-03f  1
 134r 1.0907236e+03 6.19e-01 1.12e+03  -0.9 7.89e+00  -0.6 1.10e-01 7.06e-02f  1
 135r 1.0907236e+03 6.19e-01 9.48e+02  -0.9 3.02e+01  -0.1 2.04e-02 1.62e-01f  1
 136r 1.0907236e+03 6.20e-01 6.37e+02  -0.9 9.21e+00   0.3 2.48e-01 3.54e-01f  1
 137r 1.0907236e+03 6.20e-01 1.22e+03  -0.9 1.42e-01   2.5 6.96e-01 9.13e-02h  1
 138r 1.0907236e+03 6.21e-01 2.26e+02  -0.9 1.48e-01   2.0 5.13e-01 1.00e+00h  1
 139r 1.0907236e+03 6.21e-01 3.25e+01  -0.9 1.13e-01   2.5 1.00e+00 1.00e+00f  1
iter    objective    inf_pr   inf_du lg(mu)  ||d||  lg(rg) alpha_du alpha_pr  ls
 140r 1.0907236e+03 6.21e-01 3.25e+01  -0.9 4.21e-02   2.9 8.61e-01 1.00e+00f  1
 141r 1.0907236e+03 6.21e-01 4.08e+01  -0.9 5.41e-01   2.4 5.15e-02 7.25e-02f  1
 142r 1.0907236e+03 6.21e-01 3.57e+02  -0.9 1.88e-01   1.9 1.00e+00 2.69e-01f  1
 143r 1.0907236e+03 6.21e-01 1.62e+02  -0.9 5.66e-01   1.5 7.98e-01 6.37e-01f  1
 144r 1.0907236e+03 6.21e-01 1.64e+01  -0.9 1.73e+00   1.0 1.00e+00 1.00e+00f  1
 145r 1.0907201e+03 6.21e-01 2.88e+01  -0.9 3.71e+03    -  1.08e-02 3.00e-03f  1
 146r 1.0907091e+03 6.20e-01 6.61e+01  -0.9 2.81e+03    -  1.98e-02 9.90e-03f  1
 147r 1.0907015e+03 6.19e-01 1.06e+03  -0.9 1.98e+03    -  1.50e-01 1.80e-02f  1
 148r 1.0906751e+03 6.16e-01 1.23e+03  -0.9 2.05e+03    -  1.07e-01 7.16e-02f  1
 149r 1.0906673e+03 6.15e-01 1.08e+03  -0.9 1.57e+03    -  1.47e-03 2.58e-02f  1
iter    objective    inf_pr   inf_du lg(mu)  ||d||  lg(rg) alpha_du alpha_pr  ls
 150r 1.0906650e+03 6.14e-01 1.06e+03  -0.9 1.60e+03    -  9.19e-02 7.89e-03f  1
 151r 1.0906650e+03 6.14e-01 1.46e+03  -0.9 1.05e-01   2.3 1.00e+00 4.03e-02h  1
 152r 1.0906615e+03 6.12e-01 1.55e+03  -0.9 2.17e+03    -  5.64e-02 3.48e-02f  1
 153r 1.0906516e+03 6.12e-01 1.38e+03  -0.9 1.09e+03    -  1.30e-03 3.88e-02f  1
 154r 1.0906512e+03 6.12e-01 1.89e+03  -0.9 1.37e+03    -  3.24e-01 7.13e-03h  1
 155r 1.0906483e+03 6.12e-01 1.79e+03  -0.9 1.01e+03    -  4.04e-01 5.91e-02f  1
 156r 1.0906428e+03 6.11e-01 1.63e+03  -0.9 5.15e+02    -  1.81e-02 1.02e-01f  1
 157r 1.0906167e+03 6.11e-01 8.50e+02  -0.9 6.52e+02    -  5.79e-01 8.57e-01f  1
 158r 1.0906139e+03 6.11e-01 6.89e+02  -0.9 2.23e+02    -  1.27e-01 2.01e-01f  1
 159r 1.0906139e+03 6.11e-01 2.21e-01  -0.9 3.21e+02    -  1.00e+00 1.00e+00h  1
iter    objective    inf_pr   inf_du lg(mu)  ||d||  lg(rg) alpha_du alpha_pr  ls
 160r 1.0906140e+03 6.11e-01 1.25e+01  -2.4 6.84e+01    -  6.49e-01 7.03e-01f  1
 161r 1.0901672e+03 6.11e-01 8.03e+01  -2.4 2.50e+03    -  1.00e+00 7.74e-01f  1
 162r 1.0900377e+03 6.11e-01 3.05e-03  -2.4 5.65e+02    -  1.00e+00 1.00e+00f  1
 163r 1.0900378e+03 6.11e-01 5.19e+00  -5.4 8.17e+00    -  7.90e-01 8.76e-01f  1
 164r 1.0874629e+03 6.11e-01 1.21e+02  -5.4 1.11e+05    -  8.42e-01 1.12e-01f  1
 165r 1.0874629e+03 6.11e-01 2.00e+03  -5.4 4.58e-02   2.7 2.66e-01 1.14e-04h  1
 166r 1.0874627e+03 6.11e-01 1.17e+03  -5.4 8.59e+04    -  8.40e-01 9.06e-06f  1
 167r 1.0854428e+03 6.11e-01 1.22e+03  -5.4 8.59e+04    -  1.00e+00 1.05e-01f  1
 168r 1.0832408e+03 6.11e-01 6.75e+02  -5.4 7.69e+04    -  1.00e+00 1.25e-01f  1
 169r 1.0821370e+03 6.11e-01 5.94e+02  -5.4 6.73e+04    -  1.00e+00 7.17e-02f  1
iter    objective    inf_pr   inf_du lg(mu)  ||d||  lg(rg) alpha_du alpha_pr  ls
 170r 1.0797382e+03 6.11e-01 5.60e+02  -5.4 6.25e+04    -  1.00e+00 1.71e-01f  1
 171r 1.0791566e+03 6.11e-01 5.01e+02  -5.4 5.19e+04    -  1.00e+00 5.04e-02f  1
 172r 1.0705792e+03 6.11e-01 9.93e+01  -5.4 4.93e+04    -  1.00e+00 8.04e-01f  1
 173r 1.0685801e+03 6.11e-01 2.71e+00  -5.4 9.76e+03    -  1.00e+00 9.77e-01f  1
 174r 1.0685316e+03 6.11e-01 1.97e-05  -5.4 2.32e+02    -  1.00e+00 1.00e+00h  1
 175r 1.0685317e+03 6.11e-01 2.43e-01  -8.0 4.61e-01    -  9.59e-01 9.85e-01f  1
 176r 1.0685317e+03 6.11e-01 1.84e+01  -8.0 2.49e-06   2.3 1.00e+00 9.29e-01f  1
 177r 1.0685317e+03 6.11e-01 6.46e-04  -8.0 1.08e-05   1.8 1.00e+00 1.00e+00f  1
 178r 1.0685317e+03 6.11e-01 5.15e-04  -8.0 2.58e-05   1.3 1.00e+00 1.00e+00H  1
 179r 1.0685317e+03 6.11e-01 2.43e+02  -8.0 7.52e-05   0.8 1.00e+00 5.00e-01h  2
iter    objective    inf_pr   inf_du lg(mu)  ||d||  lg(rg) alpha_du alpha_pr  ls
 180r 1.0685317e+03 6.11e-01 2.72e+02  -8.0 2.00e-04   0.3 1.00e+00 9.10e-04h 11
 181r 1.0685317e+03 6.11e-01 1.39e+02  -8.0 4.92e-04  -0.1 4.90e-01 4.90e-01s 45
 182r 1.0685317e+03 6.11e-01 5.14e+01  -8.0 1.46e-03  -0.6 6.30e-01 6.30e-01s 45
 183r 1.0685317e+03 6.11e-01 4.24e+01  -8.0 3.67e-03  -1.1 1.75e-01 1.75e-01s 45
 184r 1.0685317e+03 6.11e-01 8.99e+02  -8.0 9.02e-03  -1.6 1.00e+00 0.00e+00S 45
 185r 1.0685317e+03 6.11e-01 2.47e-04  -8.0 2.71e-02  -2.0 1.00e+00 1.00e+00f  1
 186r 1.0685316e+03 6.11e-01 2.47e-04  -8.0 8.12e-02  -2.5 1.00e+00 1.00e+00f  1
 187r 1.0685316e+03 6.11e-01 2.47e-04  -8.0 2.44e-01  -3.0 1.00e+00 1.00e+00f  1
 188r 1.0685316e+03 6.11e-01 2.47e-04  -8.0 7.31e-01  -3.5 1.00e+00 1.00e+00f  1
 189r 1.0685313e+03 6.11e-01 2.47e-04  -8.0 2.19e+00  -3.9 1.00e+00 1.00e+00f  1
iter    objective    inf_pr   inf_du lg(mu)  ||d||  lg(rg) alpha_du alpha_pr  ls
 190r 1.0685307e+03 6.11e-01 2.47e-04  -8.0 6.57e+00  -4.4 1.00e+00 1.00e+00f  1
 191r 1.0685289e+03 6.11e-01 2.47e-04  -8.0 1.97e+01  -4.9 1.00e+00 1.00e+00f  1
 192r 1.0685234e+03 6.11e-01 2.47e-04  -8.0 5.92e+01  -5.4 1.00e+00 1.00e+00f  1
 193r 1.0685069e+03 6.11e-01 2.47e-04  -8.0 1.77e+02  -5.9 1.00e+00 1.00e+00f  1
 194r 1.0684574e+03 6.11e-01 2.47e-04  -8.0 5.31e+02  -6.3 1.00e+00 1.00e+00f  1
 195r 1.0683095e+03 6.11e-01 2.64e-04  -8.0 1.59e+03  -6.8 1.00e+00 1.00e+00f  1
 196r 1.0678708e+03 6.11e-01 2.39e-03  -8.0 4.70e+03  -7.3 1.00e+00 1.00e+00f  1
 197r 1.0665960e+03 6.11e-01 2.18e-02  -8.0 1.36e+04  -7.8 1.00e+00 1.00e+00f  1
 198r 1.0664460e+03 6.11e-01 3.19e+00  -8.0 3.69e+04  -8.2 1.00e+00 4.06e-02f  1
 199r 1.0652804e+03 6.11e-01 3.11e+02  -8.0 9.22e+04  -8.7 4.22e-01 1.07e-01f  1
iter    objective    inf_pr   inf_du lg(mu)  ||d||  lg(rg) alpha_du alpha_pr  ls
 200r 1.0652804e+03 6.11e-01 3.11e+02  -8.0 3.82e-03   3.1 2.13e-04 2.19e-04h  1
 201r 1.0652804e+03 6.11e-01 9.03e+02  -8.0 6.13e-03   2.6 1.44e-04 4.43e-04h  1
 202r 1.0652804e+03 6.11e-01 1.27e+03  -8.0 2.40e-03   2.2 4.20e-04 1.37e-03h  1
 203r 1.0652804e+03 6.11e-01 1.27e+03  -8.0 2.99e-03   1.7 1.35e-03 1.13e-03h  1
 204r 1.0652804e+03 6.11e-01 3.46e+03  -8.0 1.87e-03   1.2 3.22e-03 2.91e-02h  1
 205r 1.0652804e+03 6.11e-01 3.42e+03  -8.0 1.82e-03   0.7 1.62e-02 7.43e-03h  1
 206r 1.0652804e+03 6.11e-01 3.41e+03  -8.0 1.80e-03   0.3 2.64e-02 1.64e-03h  1
 207r 1.0652804e+03 6.11e-01 1.59e+03  -8.0 1.80e-03  -0.2 4.93e-02 1.00e+00h  1
 208r 1.0652804e+03 6.11e-01 1.20e+03  -8.0 5.36e-03  -0.7 1.00e+00 1.01e-01h  1
 209r 1.0652804e+03 6.11e-01 1.09e-03  -8.0 1.61e-02  -1.2 1.00e+00 1.00e+00f  1
iter    objective    inf_pr   inf_du lg(mu)  ||d||  lg(rg) alpha_du alpha_pr  ls
 210r 1.0652804e+03 6.11e-01 1.09e-03  -8.0 4.82e-02  -1.6 1.00e+00 1.00e+00h  1
 211r 1.0652804e+03 6.11e-01 4.44e+00  -8.0 1.45e-01  -2.1 1.00e+00 4.24e-01h  1
 212r 1.0652804e+03 6.11e-01 1.01e+03  -8.0 4.29e-01  -2.6 1.00e+00 2.66e-02f  1
 213r 1.0652804e+03 6.11e-01 1.15e+03  -8.0 6.71e-01  -3.1 1.00e+00 5.49e-02f  1
 214r 1.0652804e+03 6.11e-01 9.49e+02  -8.0 1.99e+00  -3.6 1.00e+00 7.41e-02f  1
 215r 1.0652804e+03 6.11e-01 1.10e+03  -8.0 3.92e+00  -4.0 1.00e+00 5.35e-02f  1
 216r 1.0652803e+03 6.11e-01 1.53e+03  -8.0 7.32e+00  -4.5 1.00e+00 4.06e-02f  1
 217r 1.0652783e+03 6.11e-01 2.27e-04  -8.0 2.20e+01  -5.0 1.00e+00 1.00e+00f  1
 218r 1.0652750e+03 6.11e-01 3.28e-02  -8.0 6.59e+01  -5.5 1.00e+00 5.57e-01f  1
 219r 1.0652692e+03 6.11e-01 7.45e+02  -8.0 1.98e+02  -5.9 1.00e+00 3.22e-01f  1
iter    objective    inf_pr   inf_du lg(mu)  ||d||  lg(rg) alpha_du alpha_pr  ls
 220r 1.0652153e+03 6.11e-01 2.27e-04  -8.0 5.92e+02  -6.4 1.00e+00 1.00e+00f  1
 221r 1.0650564e+03 6.11e-01 4.50e-01  -8.0 1.77e+03  -6.9 1.00e+00 9.85e-01f  1
 222r 1.0645806e+03 6.11e-01 4.75e-02  -8.0 5.23e+03  -7.4 1.00e+00 9.92e-01f  1
 223r 1.0631781e+03 6.11e-01 3.43e-02  -8.0 1.51e+04  -7.8 1.00e+00 1.00e+00f  1
 224r 1.0630104e+03 6.11e-01 3.35e-02  -8.0 4.03e+04  -8.3 4.29e-02 4.05e-02f  1
 225r 1.0630104e+03 6.11e-01 3.35e-02  -8.0 1.48e-03   3.5 0.00e+00 1.40e-07R  2
 226r 1.0630104e+03 6.11e-01 9.91e+02  -8.0 9.41e-04   3.0 4.88e-01 2.18e-09f 11
 227r 1.0630104e+03 6.11e-01 9.69e+02  -8.0 1.52e-03   2.6 2.26e-02 7.43e-02f  1
 228r 1.0630104e+03 6.11e-01 3.39e+03  -8.0 1.53e-03   2.1 2.36e-02 4.47e-01f  1
 229r 1.0630104e+03 6.11e-01 3.41e+03  -8.0 8.16e-04   1.6 7.40e-02 1.34e-01f  1
iter    objective    inf_pr   inf_du lg(mu)  ||d||  lg(rg) alpha_du alpha_pr  ls
 230r 1.0630104e+03 6.11e-01 5.15e+03  -8.0 6.94e-04   1.1 5.99e-02 5.49e-01f  1
 231r 1.0630104e+03 6.11e-01 7.31e+02  -8.0 1.20e-03   0.7 4.14e-01 8.58e-01f  1
 232r 1.0630104e+03 6.11e-01 1.49e+03  -8.0 1.50e-03   0.2 3.41e-02 1.01e-01f  1
 233r 1.0630104e+03 6.11e-01 2.02e+03  -8.0 2.16e-03  -0.3 5.22e-02 4.15e-01f  1
 234r 1.0630104e+03 6.11e-01 7.74e+02  -8.0 6.46e-03  -0.8 3.86e-01 8.98e-01f  1
 235r 1.0630104e+03 6.11e-01 5.97e+02  -8.0 1.93e-02  -1.3 9.93e-01 2.90e-01f  1
 236r 1.0630104e+03 6.11e-01 1.36e+03  -8.0 5.45e-02  -1.7 1.00e+00 9.61e-02f  1
 237r 1.0630104e+03 6.11e-01 1.45e+03  -8.0 8.98e-02  -2.2 1.00e+00 5.29e-02f  1
 238r 1.0630104e+03 6.11e-01 1.31e+03  -8.0 2.54e-01  -2.7 1.00e+00 9.03e-02f  1
 239r 1.0630104e+03 6.11e-01 1.19e+03  -8.0 4.79e-01  -3.2 1.00e+00 5.98e-02f  1
iter    objective    inf_pr   inf_du lg(mu)  ||d||  lg(rg) alpha_du alpha_pr  ls
 240r 1.0630104e+03 6.11e-01 1.05e+03  -8.0 9.24e-01  -3.6 1.00e+00 2.80e-01f  1
 241r 1.0630101e+03 6.11e-01 2.13e-04  -8.0 2.77e+00  -4.1 1.00e+00 1.00e+00f  1
 242r 1.0630093e+03 6.11e-01 2.13e-04  -8.0 8.31e+00  -4.6 1.00e+00 1.00e+00f  1
 243r 1.0630071e+03 6.11e-01 2.13e-04  -8.0 2.49e+01  -5.1 1.00e+00 1.00e+00f  1
 244r 1.0630062e+03 6.11e-01 3.99e-02  -8.0 7.48e+01  -5.5 1.00e+00 1.30e-01f  1
 245r 1.0629856e+03 6.11e-01 8.72e+02  -8.0 2.24e+02  -6.0 2.38e-01 1.00e+00f  1
 246r 1.0629856e+03 6.11e-01 4.22e-03  -8.0 6.38e-07   3.8 1.00e+00 1.00e+00h  1
 247r 1.0629856e+03 6.11e-01 4.55e-03  -8.0 2.06e-06   3.3 1.00e+00 1.00e+00h  1
 248r 1.0629856e+03 6.11e-01 6.00e-03  -8.0 8.15e-06   2.9 1.00e+00 1.00e+00h  1
 249r 1.0629856e+03 6.11e-01 1.99e+01  -8.0 1.09e-04   2.4 2.18e-01 1.00e+00h  1
iter    objective    inf_pr   inf_du lg(mu)  ||d||  lg(rg) alpha_du alpha_pr  ls
 250r 1.0629856e+03 6.11e-01 3.84e-02  -8.0 5.87e-05   2.8 1.00e+00 1.00e+00h  1
 251r 1.0629856e+03 6.11e-01 2.01e+01  -8.0 1.60e-03   2.3 1.14e-01 1.00e+00f  1
 252r 1.0629856e+03 6.11e-01 5.24e-01  -8.0 9.00e-04   2.8 1.00e+00 1.00e+00h  1
 253r 1.0629856e+03 6.11e-01 2.01e+02  -8.0 6.36e-01   2.3 4.23e-03 2.37e-01f  1
 254r 1.0629856e+03 6.11e-01 2.01e+02  -8.0 5.96e-02   2.7 0.00e+00 1.42e-12R 15
 255r 1.0629856e+03 6.11e-01 1.16e+02  -8.0 4.87e-01   2.2 2.03e-01 2.77e-12f 11
 256r 1.0629856e+03 6.11e-01 1.16e+02  -8.0 3.26e-02   1.8 1.00e+00 1.37e-03f  7
 257r 1.0629856e+03 6.11e-01 1.93e+01  -8.0 3.28e-02   1.3 1.00e+00 9.98e-01f  1
 258r 1.0629856e+03 6.11e-01 1.23e-01  -8.0 4.42e-04   0.8 1.00e+00 1.00e+00f  1
 259r 1.0629856e+03 6.11e-01 1.04e+00  -8.0 9.99e-05   0.3 9.92e-01 1.00e+00h  1
iter    objective    inf_pr   inf_du lg(mu)  ||d||  lg(rg) alpha_du alpha_pr  ls
 260r 1.0629856e+03 6.11e-01 3.64e-04  -8.0 5.13e-04  -0.1 1.00e+00 1.00e+00h  1
 261r 1.0629856e+03 6.11e-01 1.06e+01  -8.0 8.99e-04  -0.6 9.16e-01 1.00e+00h  1
 262r 1.0629856e+03 6.11e-01 2.13e-04  -8.0 2.70e-03  -1.1 1.00e+00 1.00e+00h  1
 263r 1.0629856e+03 6.11e-01 5.35e+00  -8.0 8.09e-03  -1.6 6.15e-01 1.00e+00h  1
 264r 1.0629856e+03 6.11e-01 2.13e-04  -8.0 2.43e-02  -2.1 1.00e+00 1.00e+00h  1
 265r 1.0629856e+03 6.11e-01 4.85e+00  -8.0 7.28e-02  -2.5 3.99e-01 1.00e+00h  1
 266r 1.0629856e+03 6.11e-01 2.13e-04  -8.0 2.18e-01  -3.0 1.00e+00 1.00e+00f  1
 267r 1.0629855e+03 6.11e-01 3.35e+01  -8.0 6.55e-01  -3.5 4.30e-01 1.00e+00f  1
 268r 1.0629854e+03 6.11e-01 4.83e+01  -8.0 1.97e+00  -4.0 1.00e+00 5.59e-01f  1
 269r 1.0629849e+03 6.11e-01 3.10e+02  -8.0 5.90e+00  -4.4 7.47e-01 1.00e+00f  1
iter    objective    inf_pr   inf_du lg(mu)  ||d||  lg(rg) alpha_du alpha_pr  ls
 270r 1.0629835e+03 6.11e-01 2.12e+01  -8.0 1.77e+01  -4.9 1.00e+00 8.35e-01f  1
 271r 1.0629786e+03 6.11e-01 2.13e-04  -8.0 5.31e+01  -5.4 1.00e+00 1.00e+00f  1
 272r 1.0629638e+03 6.11e-01 2.12e-04  -8.0 1.59e+02  -5.9 1.00e+00 1.00e+00f  1
 273r 1.0629194e+03 6.11e-01 2.12e-04  -8.0 4.77e+02  -6.4 1.00e+00 1.00e+00f  1
 274r 1.0627867e+03 6.11e-01 3.21e-04  -8.0 1.43e+03  -6.8 1.00e+00 1.00e+00f  1
 275r 1.0623914e+03 6.11e-01 2.90e-03  -8.0 4.23e+03  -7.3 1.00e+00 1.00e+00f  1
 276r 1.0612296e+03 6.11e-01 2.66e-02  -8.0 1.23e+04  -7.8 1.00e+00 1.00e+00f  1
 277r 1.0579283e+03 6.11e-01 2.54e-01  -8.0 3.34e+04  -8.3 1.00e+00 1.00e+00f  1
 278r 1.0563775e+03 6.11e-01 4.53e+00  -8.0 7.82e+04  -8.7 1.00e+00 1.63e-01f  1
 279r 1.0563775e+03 6.11e-01 7.74e+02  -8.0 1.86e+05  -9.2 1.00e+00 9.45e-08h  1
iter    objective    inf_pr   inf_du lg(mu)  ||d||  lg(rg) alpha_du alpha_pr  ls
 280r 1.0401957e+03 6.11e-01 6.28e+02  -8.0 6.37e+05  -9.7 1.00e+00 1.73e-01f  1
 281r 1.0401954e+03 6.11e-01 7.71e+02  -8.0 7.21e+06 -10.2 1.00e+00 2.75e-07f  1
 282r 1.0381671e+03 6.11e-01 5.64e+02  -8.0 8.68e+05  -9.7 1.00e+00 1.73e-02f  1
 283r 1.0380876e+03 6.11e-01 7.79e+02  -8.0 1.12e+06 -10.2 1.00e+00 6.38e-04f  1
 284r 1.0190920e+03 6.11e-01 7.29e+02  -8.0 3.38e+06 -10.7 1.00e+00 4.99e-02f  1
 285r 1.0174311e+03 6.11e-01 7.33e+02  -8.0 1.48e+06 -10.3 1.00e+00 1.09e-02f  1
 286r 1.0018935e+03 6.11e-01 6.97e+02  -8.0 7.17e+06 -10.7 1.00e+00 2.05e-02f  1
 287r 1.0018951e+03 6.11e-01 6.87e+02  -8.0 3.55e+05    -  1.00e+00 6.78e-05f  1
 288r 1.0043194e+03 6.11e-01 6.13e+02  -8.0 3.00e+05    -  1.00e+00 1.03e-01f  1
 289r 1.0045288e+03 6.11e-01 1.15e+03  -8.0 9.27e+04  -7.6 4.33e-02 1.79e-01f  1
iter    objective    inf_pr   inf_du lg(mu)  ||d||  lg(rg) alpha_du alpha_pr  ls
 290r 1.0045288e+03 6.11e-01 1.15e+03  -8.0 1.93e+03   0.2 3.50e-09 1.24e-08h  2
 291r 1.0045288e+03 6.11e-01 1.15e+03  -8.0 3.43e+03  -0.2 5.10e-08 4.77e-08f  1
 292r 1.0045288e+03 6.11e-01 1.15e+03  -8.0 7.66e+02   0.2 8.46e-08 1.24e-07h  1
 293r 1.0045288e+03 6.11e-01 1.91e+03  -8.0 8.79e+01   0.6 7.99e-08 6.40e-07h  1
 294r 1.0045288e+03 6.11e-01 8.85e+03  -8.0 1.31e+02   0.1 4.92e-07 7.25e-06f  1
 295r 1.0045288e+03 6.11e-01 8.85e+03  -8.0 5.62e+00   0.6 7.34e-06 3.39e-05f  1
 296r 1.0045288e+03 6.11e-01 8.85e+03  -8.0 2.60e+01   0.1 1.95e-05 6.23e-05f  1
 297r 1.0045288e+03 6.11e-01 8.85e+03  -8.0 6.47e+00   0.5 2.37e-05 4.40e-05f  1
 298r 1.0045288e+03 6.11e-01 8.84e+03  -8.0 3.25e+01   0.0 2.65e-05 4.39e-04f  1
 299r 1.0045288e+03 6.11e-01 8.84e+03  -8.0 7.47e+00   0.5 9.28e-05 1.20e-04f  1
iter    objective    inf_pr   inf_du lg(mu)  ||d||  lg(rg) alpha_du alpha_pr  ls
 300r 1.0045288e+03 6.11e-01 8.84e+03  -8.0 4.20e+01  -0.0 9.71e-05 7.81e-04f  1
 301r 1.0045288e+03 6.11e-01 8.81e+03  -8.0 8.66e+00   0.4 5.15e-04 2.53e-03f  1
 302r 1.0045288e+03 6.11e-01 8.78e+03  -8.0 5.67e+01  -0.1 2.79e-03 3.22e-03f  1
 303r 1.0045288e+03 6.11e-01 7.10e+03  -8.0 1.02e+01   0.4 6.17e-03 1.91e-01f  1
 304r 1.0045288e+03 6.11e-01 6.18e+03  -8.0 9.47e+01  -0.1 3.88e-02 1.30e-01f  1
 305r 1.0045288e+03 6.11e-01 6.18e+03  -8.0 1.75e+01   0.3 0.00e+00 2.73e-13R 15
 306r 1.0045288e+03 6.11e-01 6.18e+03  -8.0 2.75e+02  -0.2 4.08e-02 2.95e-13f 11
 307r 1.0045288e+03 6.11e-01 6.15e+03  -8.0 9.67e-01  -0.7 5.15e-02 5.93e-03f  1
 308r 1.0045288e+03 6.11e-01 5.98e+03  -8.0 9.30e-01  -1.1 8.40e-02 2.68e-02f  1
 309r 1.0045288e+03 6.11e-01 5.20e+03  -8.0 9.37e-01  -1.6 2.17e-01 1.31e-01f  1
iter    objective    inf_pr   inf_du lg(mu)  ||d||  lg(rg) alpha_du alpha_pr  ls
 310r 1.0045288e+03 6.11e-01 3.64e+03  -8.0 1.21e+00  -2.1 4.16e-01 3.00e-01f  1
 311r 1.0045288e+03 6.11e-01 1.26e+03  -8.0 1.11e+00  -2.6 1.43e-01 6.52e-01f  1
 312r 1.0045288e+03 6.11e-01 3.26e+02  -8.0 1.17e+00  -3.0 9.39e-01 7.43e-01f  1
 313r 1.0045288e+03 6.11e-01 3.49e+02  -8.0 3.51e+00  -3.5 1.00e+00 3.46e-01f  1
 314r 1.0045288e+03 6.11e-01 5.80e+02  -8.0 1.05e+01  -4.0 1.00e+00 4.31e-02f  1
 315r 1.0045288e+03 6.11e-01 7.72e+02  -8.0 3.07e+01  -4.5 1.00e+00 1.51e-03f  1
 316r 1.0045289e+03 6.11e-01 1.11e+03  -8.0 4.90e+01  -4.9 1.00e+00 3.13e-02f  1
 317r 1.0045291e+03 6.11e-01 1.11e+03  -8.0 1.43e+02  -5.4 1.79e-01 1.93e-02f  1
 318r 1.0045291e+03 6.11e-01 1.28e+03  -8.0 2.89e+02  -5.9 1.00e+00 2.84e-03f  1
 319r 1.0045301e+03 6.11e-01 1.75e+03  -8.0 5.56e+02  -6.4 1.00e+00 1.66e-02f  1
iter    objective    inf_pr   inf_du lg(mu)  ||d||  lg(rg) alpha_du alpha_pr  ls
 320r 1.0045319e+03 6.11e-01 1.94e+03  -8.0 1.67e+03  -6.9 1.00e+00 9.73e-03f  1
 321r 1.0045791e+03 6.11e-01 1.78e+03  -8.0 5.05e+03  -7.3 1.46e-01 8.52e-02f  1
 322r 1.0045791e+03 6.11e-01 1.66e+03  -8.0 1.55e+04  -7.8 1.00e+00 9.40e-07f  1
 323r 1.0047037e+03 6.11e-01 1.52e+03  -8.0 4.95e+04  -8.3 1.00e+00 2.48e-02f  1
 324r 1.0047888e+03 6.11e-01 1.27e+03  -8.0 1.87e+05  -8.8 1.00e+00 5.69e-03f  1
 325r 1.0048269e+03 6.11e-01 1.09e+03  -8.0 2.37e+06  -9.2 1.00e+00 2.00e-03f  1
 326r 1.0051806e+03 6.11e-01 1.08e+03  -8.0 2.28e+05  -8.8 1.00e+00 4.42e-02f  1
 327r 1.0054945e+03 6.11e-01 1.01e+03  -8.0 6.80e+04  -8.4 1.00e+00 9.15e-02f  1
 328r 1.0060402e+03 6.11e-01 8.61e+02  -8.0 3.07e+05  -8.9 1.00e+00 2.01e-01f  1
 329r 1.0064738e+03 6.11e-01 6.25e+02  -8.0 1.08e+05  -8.4 1.00e+00 2.89e-01f  1
iter    objective    inf_pr   inf_du lg(mu)  ||d||  lg(rg) alpha_du alpha_pr  ls
 330r 1.0064738e+03 6.11e-01 6.25e+02  -8.0 1.41e+05    -  0.00e+00 4.94e-13R 20
 331r 1.0064738e+03 6.11e-01 7.79e+02  -8.0 1.41e+05    -  1.00e+00 2.58e-07f  1
 332r 1.0297140e+03 6.10e-01 6.84e+00  -8.0 1.41e+05    -  1.00e+00 9.99e-01f  1
 333r 1.0297513e+03 6.10e-01 1.71e+01  -8.0 9.47e+03    -  1.00e+00 8.93e-01h  1
 334r 1.0297463e+03 6.10e-01 1.34e-04  -8.0 1.04e+03    -  1.00e+00 1.00e+00h  1

Number of Iterations....: 334

                                   (scaled)                 (unscaled)
Objective...............:   1.0297461308096194e+03    1.0297461308096194e+03
Dual infeasibility......:   1.2582870408300338e-04    1.2582870408300338e-04
Constraint violation....:   6.0981952423851737e-01    6.0981952423851737e-01
Complementarity.........:   9.1517297175581837e-09    9.1517297175581837e-09
Overall NLP error.......:   6.0981952423851737e-01    6.0981952423851737e-01


Number of objective function evaluations             = 766
Number of objective gradient evaluations             = 61
Number of equality constraint evaluations            = 770
Number of inequality constraint evaluations          = 0
Number of equality constraint Jacobian evaluations   = 344
Number of inequality constraint Jacobian evaluations = 0
Number of Lagrangian Hessian evaluations             = 335
Total CPU secs in IPOPT (w/o function evaluations)   =      0.556
Total CPU secs in NLP function evaluations           =      9.146

EXIT: Converged to a point of local infeasibility. Problem may be infeasible.
